NAME : pr20.tsp
COMMENT : 20-city problem
TYPE : TSP 
DIMENSION : 20
EDGE_WEIGHT_TYPE : CEIL_2D
NODE_COORD_SECTION 
1  3.997000e+04 6.204000e+03 
2  5.096400e+04 7.455000e+04 
3  7.679900e+04 3.034900e+04 
4  8.579000e+04 5.671400e+04 
5  9.968500e+04 4.689600e+04 
6  9.357700e+04 3.747700e+04 
7  5.375200e+04 2.464500e+04 
8  1.164600e+04 4.784300e+04 
9  4.933600e+04 5.226700e+04 
10 8.627900e+04 7.265000e+04 
11 2.729100e+04 1.301000e+03 
12 5.689500e+04 7.547100e+04 
13 2.962300e+04 4.594600e+04 
14 6.842100e+04 2.396900e+04 
15 6.962600e+04 6.544600e+04 
16 2.732000e+03 7.312600e+04 
17 3.512300e+04 5.349100e+04 
18 7.236200e+04 2.207600e+04 
19 4.434000e+03 8.500900e+04 
20 1.176800e+04 1.137600e+04 
EOF 
